% Auto-generated by scripts/generate_dzn.py
% problem_type   = regex
% instance       = regex_92
% source_json    = instances_json/2_high_blowup/regex_92.json
% blowup         = 10.25
% representation = NFA

mode = 1;

var_count = 27;
n_constraints = 2;
Q = 12;
S = 2;
q0 = [1, 1];
F = [{12}, {12}];
weights = [6, 9, 8, 6, 2, 9, 6, 1, 2, 6, 3, 8, 10, 1, 6, 5, 1, 10, 4, 8, 8, 3, 5, 6, 8, 10, 5];
d_dfa = array3d(1..2, 1..12, 1..2, [
  % k = 1
    0, 0,
    0, 0,
    0, 0,
    0, 0,
    0, 0,
    0, 0,
    0, 0,
    0, 0,
    0, 0,
    0, 0,
    0, 0,
    0, 0,

  % k = 2
    0, 0,
    0, 0,
    0, 0,
    0, 0,
    0, 0,
    0, 0,
    0, 0,
    0, 0,
    0, 0,
    0, 0,
    0, 0,
    0, 0
]);
d_nfa = array3d(1..2, 1..12, 1..2, [
  % k = 1
    {1}, {1, 2},
    {3}, {},
    {4}, {4},
    {5}, {5},
    {6}, {6},
    {7}, {7},
    {8}, {8},
    {9}, {9},
    {10}, {10},
    {11}, {11},
    {12}, {12},
    {}, {},

  % k = 2
    {2}, {1},
    {3}, {2},
    {4}, {3},
    {5}, {4},
    {6}, {5},
    {7}, {6},
    {8}, {7},
    {9}, {8},
    {10}, {9},
    {11}, {10},
    {12}, {11},
    {}, {12}
]);
